\ This file has been generated by DOcplex
\ ENCODING=ISO-8859-1
\Problem name: TSP

Minimize
 obj: 6.403124237433 x_(2,_7)_(7,_3) + 4.123105625618 x_(2,_7)_(6,_8)
      + 7.071067811865 x_(2,_7)_(3,_0) + 3.162277660168 x_(2,_7)_(3,_10)
      + 7.280109889281 x_(2,_7)_(4,_0) + 7.615773105864 x_(2,_7)_(9,_10)
      + 6.082762530298 x_(2,_7)_(8,_8) + 5.830951894845 x_(2,_7)_(5,_2)
      + 5.385164807135 x_(2,_7)_(7,_9) + 6.403124237433 x_(7,_3)_(2,_7)
      + 5.099019513593 x_(7,_3)_(6,_8) + 5 x_(7,_3)_(3,_0)
      + 8.062257748299 x_(7,_3)_(3,_10) + 4.242640687119 x_(7,_3)_(4,_0)
      + 7.280109889281 x_(7,_3)_(9,_10) + 5.099019513593 x_(7,_3)_(8,_8)
      + 2.236067977500 x_(7,_3)_(5,_2) + 6 x_(7,_3)_(7,_9)
      + 4.123105625618 x_(6,_8)_(2,_7) + 5.099019513593 x_(6,_8)_(7,_3)
      + 8.544003745318 x_(6,_8)_(3,_0) + 3.605551275464 x_(6,_8)_(3,_10)
      + 8.246211251235 x_(6,_8)_(4,_0) + 3.605551275464 x_(6,_8)_(9,_10)
      + 2 x_(6,_8)_(8,_8) + 6.082762530298 x_(6,_8)_(5,_2)
      + 1.414213562373 x_(6,_8)_(7,_9) + 7.071067811865 x_(3,_0)_(2,_7)
      + 5 x_(3,_0)_(7,_3) + 8.544003745318 x_(3,_0)_(6,_8) + 10 x_(3,_0)_(3,_10)
      + x_(3,_0)_(4,_0) + 11.661903789691 x_(3,_0)_(9,_10)
      + 9.433981132057 x_(3,_0)_(8,_8) + 2.828427124746 x_(3,_0)_(5,_2)
      + 9.848857801796 x_(3,_0)_(7,_9) + 3.162277660168 x_(3,_10)_(2,_7)
      + 8.062257748299 x_(3,_10)_(7,_3) + 3.605551275464 x_(3,_10)_(6,_8)
      + 10 x_(3,_10)_(3,_0) + 10.049875621121 x_(3,_10)_(4,_0)
      + 6 x_(3,_10)_(9,_10) + 5.385164807135 x_(3,_10)_(8,_8)
      + 8.246211251235 x_(3,_10)_(5,_2) + 4.123105625618 x_(3,_10)_(7,_9)
      + 7.280109889281 x_(4,_0)_(2,_7) + 4.242640687119 x_(4,_0)_(7,_3)
      + 8.246211251235 x_(4,_0)_(6,_8) + x_(4,_0)_(3,_0)
      + 10.049875621121 x_(4,_0)_(3,_10) + 11.180339887499 x_(4,_0)_(9,_10)
      + 8.944271909999 x_(4,_0)_(8,_8) + 2.236067977500 x_(4,_0)_(5,_2)
      + 9.486832980505 x_(4,_0)_(7,_9) + 7.615773105864 x_(9,_10)_(2,_7)
      + 7.280109889281 x_(9,_10)_(7,_3) + 3.605551275464 x_(9,_10)_(6,_8)
      + 11.661903789691 x_(9,_10)_(3,_0) + 6 x_(9,_10)_(3,_10)
      + 11.180339887499 x_(9,_10)_(4,_0) + 2.236067977500 x_(9,_10)_(8,_8)
      + 8.944271909999 x_(9,_10)_(5,_2) + 2.236067977500 x_(9,_10)_(7,_9)
      + 6.082762530298 x_(8,_8)_(2,_7) + 5.099019513593 x_(8,_8)_(7,_3)
      + 2 x_(8,_8)_(6,_8) + 9.433981132057 x_(8,_8)_(3,_0)
      + 5.385164807135 x_(8,_8)_(3,_10) + 8.944271909999 x_(8,_8)_(4,_0)
      + 2.236067977500 x_(8,_8)_(9,_10) + 6.708203932499 x_(8,_8)_(5,_2)
      + 1.414213562373 x_(8,_8)_(7,_9) + 5.830951894845 x_(5,_2)_(2,_7)
      + 2.236067977500 x_(5,_2)_(7,_3) + 6.082762530298 x_(5,_2)_(6,_8)
      + 2.828427124746 x_(5,_2)_(3,_0) + 8.246211251235 x_(5,_2)_(3,_10)
      + 2.236067977500 x_(5,_2)_(4,_0) + 8.944271909999 x_(5,_2)_(9,_10)
      + 6.708203932499 x_(5,_2)_(8,_8) + 7.280109889281 x_(5,_2)_(7,_9)
      + 5.385164807135 x_(7,_9)_(2,_7) + 6 x_(7,_9)_(7,_3)
      + 1.414213562373 x_(7,_9)_(6,_8) + 9.848857801796 x_(7,_9)_(3,_0)
      + 4.123105625618 x_(7,_9)_(3,_10) + 9.486832980505 x_(7,_9)_(4,_0)
      + 2.236067977500 x_(7,_9)_(9,_10) + 1.414213562373 x_(7,_9)_(8,_8)
      + 7.280109889281 x_(7,_9)_(5,_2)
Subject To
 out_(2,_7): x_(2,_7)_(7,_3) + x_(2,_7)_(6,_8) + x_(2,_7)_(3,_0)
             + x_(2,_7)_(3,_10) + x_(2,_7)_(4,_0) + x_(2,_7)_(9,_10)
             + x_(2,_7)_(8,_8) + x_(2,_7)_(5,_2) + x_(2,_7)_(7,_9) = 1
 out_(7,_3): x_(7,_3)_(2,_7) + x_(7,_3)_(6,_8) + x_(7,_3)_(3,_0)
             + x_(7,_3)_(3,_10) + x_(7,_3)_(4,_0) + x_(7,_3)_(9,_10)
             + x_(7,_3)_(8,_8) + x_(7,_3)_(5,_2) + x_(7,_3)_(7,_9) = 1
 out_(6,_8): x_(6,_8)_(2,_7) + x_(6,_8)_(7,_3) + x_(6,_8)_(3,_0)
             + x_(6,_8)_(3,_10) + x_(6,_8)_(4,_0) + x_(6,_8)_(9,_10)
             + x_(6,_8)_(8,_8) + x_(6,_8)_(5,_2) + x_(6,_8)_(7,_9) = 1
 out_(3,_0): x_(3,_0)_(2,_7) + x_(3,_0)_(7,_3) + x_(3,_0)_(6,_8)
             + x_(3,_0)_(3,_10) + x_(3,_0)_(4,_0) + x_(3,_0)_(9,_10)
             + x_(3,_0)_(8,_8) + x_(3,_0)_(5,_2) + x_(3,_0)_(7,_9) = 1
 out_(3,_10): x_(3,_10)_(2,_7) + x_(3,_10)_(7,_3) + x_(3,_10)_(6,_8)
              + x_(3,_10)_(3,_0) + x_(3,_10)_(4,_0) + x_(3,_10)_(9,_10)
              + x_(3,_10)_(8,_8) + x_(3,_10)_(5,_2) + x_(3,_10)_(7,_9) = 1
 out_(4,_0): x_(4,_0)_(2,_7) + x_(4,_0)_(7,_3) + x_(4,_0)_(6,_8)
             + x_(4,_0)_(3,_0) + x_(4,_0)_(3,_10) + x_(4,_0)_(9,_10)
             + x_(4,_0)_(8,_8) + x_(4,_0)_(5,_2) + x_(4,_0)_(7,_9) = 1
 out_(9,_10): x_(9,_10)_(2,_7) + x_(9,_10)_(7,_3) + x_(9,_10)_(6,_8)
              + x_(9,_10)_(3,_0) + x_(9,_10)_(3,_10) + x_(9,_10)_(4,_0)
              + x_(9,_10)_(8,_8) + x_(9,_10)_(5,_2) + x_(9,_10)_(7,_9) = 1
 out_(8,_8): x_(8,_8)_(2,_7) + x_(8,_8)_(7,_3) + x_(8,_8)_(6,_8)
             + x_(8,_8)_(3,_0) + x_(8,_8)_(3,_10) + x_(8,_8)_(4,_0)
             + x_(8,_8)_(9,_10) + x_(8,_8)_(5,_2) + x_(8,_8)_(7,_9) = 1
 out_(5,_2): x_(5,_2)_(2,_7) + x_(5,_2)_(7,_3) + x_(5,_2)_(6,_8)
             + x_(5,_2)_(3,_0) + x_(5,_2)_(3,_10) + x_(5,_2)_(4,_0)
             + x_(5,_2)_(9,_10) + x_(5,_2)_(8,_8) + x_(5,_2)_(7,_9) = 1
 out_(7,_9): x_(7,_9)_(2,_7) + x_(7,_9)_(7,_3) + x_(7,_9)_(6,_8)
             + x_(7,_9)_(3,_0) + x_(7,_9)_(3,_10) + x_(7,_9)_(4,_0)
             + x_(7,_9)_(9,_10) + x_(7,_9)_(8,_8) + x_(7,_9)_(5,_2) = 1
 in_(2,_7): x_(7,_3)_(2,_7) + x_(6,_8)_(2,_7) + x_(3,_0)_(2,_7)
            + x_(3,_10)_(2,_7) + x_(4,_0)_(2,_7) + x_(9,_10)_(2,_7)
            + x_(8,_8)_(2,_7) + x_(5,_2)_(2,_7) + x_(7,_9)_(2,_7) = 1
 in_(7,_3): x_(2,_7)_(7,_3) + x_(6,_8)_(7,_3) + x_(3,_0)_(7,_3)
            + x_(3,_10)_(7,_3) + x_(4,_0)_(7,_3) + x_(9,_10)_(7,_3)
            + x_(8,_8)_(7,_3) + x_(5,_2)_(7,_3) + x_(7,_9)_(7,_3) = 1
 in_(6,_8): x_(2,_7)_(6,_8) + x_(7,_3)_(6,_8) + x_(3,_0)_(6,_8)
            + x_(3,_10)_(6,_8) + x_(4,_0)_(6,_8) + x_(9,_10)_(6,_8)
            + x_(8,_8)_(6,_8) + x_(5,_2)_(6,_8) + x_(7,_9)_(6,_8) = 1
 in_(3,_0): x_(2,_7)_(3,_0) + x_(7,_3)_(3,_0) + x_(6,_8)_(3,_0)
            + x_(3,_10)_(3,_0) + x_(4,_0)_(3,_0) + x_(9,_10)_(3,_0)
            + x_(8,_8)_(3,_0) + x_(5,_2)_(3,_0) + x_(7,_9)_(3,_0) = 1
 in_(3,_10): x_(2,_7)_(3,_10) + x_(7,_3)_(3,_10) + x_(6,_8)_(3,_10)
             + x_(3,_0)_(3,_10) + x_(4,_0)_(3,_10) + x_(9,_10)_(3,_10)
             + x_(8,_8)_(3,_10) + x_(5,_2)_(3,_10) + x_(7,_9)_(3,_10) = 1
 in_(4,_0): x_(2,_7)_(4,_0) + x_(7,_3)_(4,_0) + x_(6,_8)_(4,_0)
            + x_(3,_0)_(4,_0) + x_(3,_10)_(4,_0) + x_(9,_10)_(4,_0)
            + x_(8,_8)_(4,_0) + x_(5,_2)_(4,_0) + x_(7,_9)_(4,_0) = 1
 in_(9,_10): x_(2,_7)_(9,_10) + x_(7,_3)_(9,_10) + x_(6,_8)_(9,_10)
             + x_(3,_0)_(9,_10) + x_(3,_10)_(9,_10) + x_(4,_0)_(9,_10)
             + x_(8,_8)_(9,_10) + x_(5,_2)_(9,_10) + x_(7,_9)_(9,_10) = 1
 in_(8,_8): x_(2,_7)_(8,_8) + x_(7,_3)_(8,_8) + x_(6,_8)_(8,_8)
            + x_(3,_0)_(8,_8) + x_(3,_10)_(8,_8) + x_(4,_0)_(8,_8)
            + x_(9,_10)_(8,_8) + x_(5,_2)_(8,_8) + x_(7,_9)_(8,_8) = 1
 in_(5,_2): x_(2,_7)_(5,_2) + x_(7,_3)_(5,_2) + x_(6,_8)_(5,_2)
            + x_(3,_0)_(5,_2) + x_(3,_10)_(5,_2) + x_(4,_0)_(5,_2)
            + x_(9,_10)_(5,_2) + x_(8,_8)_(5,_2) + x_(7,_9)_(5,_2) = 1
 in_(7,_9): x_(2,_7)_(7,_9) + x_(7,_3)_(7,_9) + x_(6,_8)_(7,_9)
            + x_(3,_0)_(7,_9) + x_(3,_10)_(7,_9) + x_(4,_0)_(7,_9)
            + x_(9,_10)_(7,_9) + x_(8,_8)_(7,_9) + x_(5,_2)_(7,_9) = 1
 order_((2,_7),_(7,_3)): x_(2,_7)_(7,_3) = 1 -> d_2_7 - d_7_3 = -1
 order_((2,_7),_(6,_8)): x_(2,_7)_(6,_8) = 1 -> d_2_7 - d_6_8 = -1
 order_((2,_7),_(3,_0)): x_(2,_7)_(3,_0) = 1 -> d_2_7 - d_3_0 = -1
 order_((2,_7),_(3,_10)): x_(2,_7)_(3,_10) = 1 -> d_2_7 - d_3_10 = -1
 order_((2,_7),_(4,_0)): x_(2,_7)_(4,_0) = 1 -> d_2_7 - d_4_0 = -1
 order_((2,_7),_(9,_10)): x_(2,_7)_(9,_10) = 1 -> d_2_7 - d_9_10 = -1
 order_((2,_7),_(8,_8)): x_(2,_7)_(8,_8) = 1 -> d_2_7 - d_8_8 = -1
 order_((2,_7),_(5,_2)): x_(2,_7)_(5,_2) = 1 -> d_2_7 - d_5_2 = -1
 order_((2,_7),_(7,_9)): x_(2,_7)_(7,_9) = 1 -> d_2_7 - d_7_9 = -1
 order_((7,_3),_(6,_8)): x_(7,_3)_(6,_8) = 1 -> d_7_3 - d_6_8 = -1
 order_((7,_3),_(3,_0)): x_(7,_3)_(3,_0) = 1 -> d_7_3 - d_3_0 = -1
 order_((7,_3),_(3,_10)): x_(7,_3)_(3,_10) = 1 -> d_7_3 - d_3_10 = -1
 order_((7,_3),_(4,_0)): x_(7,_3)_(4,_0) = 1 -> d_7_3 - d_4_0 = -1
 order_((7,_3),_(9,_10)): x_(7,_3)_(9,_10) = 1 -> d_7_3 - d_9_10 = -1
 order_((7,_3),_(8,_8)): x_(7,_3)_(8,_8) = 1 -> d_7_3 - d_8_8 = -1
 order_((7,_3),_(5,_2)): x_(7,_3)_(5,_2) = 1 -> d_7_3 - d_5_2 = -1
 order_((7,_3),_(7,_9)): x_(7,_3)_(7,_9) = 1 -> d_7_3 - d_7_9 = -1
 order_((6,_8),_(7,_3)): x_(6,_8)_(7,_3) = 1 -> d_6_8 - d_7_3 = -1
 order_((6,_8),_(3,_0)): x_(6,_8)_(3,_0) = 1 -> d_6_8 - d_3_0 = -1
 order_((6,_8),_(3,_10)): x_(6,_8)_(3,_10) = 1 -> d_6_8 - d_3_10 = -1
 order_((6,_8),_(4,_0)): x_(6,_8)_(4,_0) = 1 -> d_6_8 - d_4_0 = -1
 order_((6,_8),_(9,_10)): x_(6,_8)_(9,_10) = 1 -> d_6_8 - d_9_10 = -1
 order_((6,_8),_(8,_8)): x_(6,_8)_(8,_8) = 1 -> d_6_8 - d_8_8 = -1
 order_((6,_8),_(5,_2)): x_(6,_8)_(5,_2) = 1 -> d_6_8 - d_5_2 = -1
 order_((6,_8),_(7,_9)): x_(6,_8)_(7,_9) = 1 -> d_6_8 - d_7_9 = -1
 order_((3,_0),_(7,_3)): x_(3,_0)_(7,_3) = 1 -> d_3_0 - d_7_3 = -1
 order_((3,_0),_(6,_8)): x_(3,_0)_(6,_8) = 1 -> d_3_0 - d_6_8 = -1
 order_((3,_0),_(3,_10)): x_(3,_0)_(3,_10) = 1 -> d_3_0 - d_3_10 = -1
 order_((3,_0),_(4,_0)): x_(3,_0)_(4,_0) = 1 -> d_3_0 - d_4_0 = -1
 order_((3,_0),_(9,_10)): x_(3,_0)_(9,_10) = 1 -> d_3_0 - d_9_10 = -1
 order_((3,_0),_(8,_8)): x_(3,_0)_(8,_8) = 1 -> d_3_0 - d_8_8 = -1
 order_((3,_0),_(5,_2)): x_(3,_0)_(5,_2) = 1 -> d_3_0 - d_5_2 = -1
 order_((3,_0),_(7,_9)): x_(3,_0)_(7,_9) = 1 -> d_3_0 - d_7_9 = -1
 order_((3,_10),_(7,_3)): x_(3,_10)_(7,_3) = 1 -> d_3_10 - d_7_3 = -1
 order_((3,_10),_(6,_8)): x_(3,_10)_(6,_8) = 1 -> d_3_10 - d_6_8 = -1
 order_((3,_10),_(3,_0)): x_(3,_10)_(3,_0) = 1 -> d_3_10 - d_3_0 = -1
 order_((3,_10),_(4,_0)): x_(3,_10)_(4,_0) = 1 -> d_3_10 - d_4_0 = -1
 order_((3,_10),_(9,_10)): x_(3,_10)_(9,_10) = 1 -> d_3_10 - d_9_10 = -1
 order_((3,_10),_(8,_8)): x_(3,_10)_(8,_8) = 1 -> d_3_10 - d_8_8 = -1
 order_((3,_10),_(5,_2)): x_(3,_10)_(5,_2) = 1 -> d_3_10 - d_5_2 = -1
 order_((3,_10),_(7,_9)): x_(3,_10)_(7,_9) = 1 -> d_3_10 - d_7_9 = -1
 order_((4,_0),_(7,_3)): x_(4,_0)_(7,_3) = 1 -> d_4_0 - d_7_3 = -1
 order_((4,_0),_(6,_8)): x_(4,_0)_(6,_8) = 1 -> d_4_0 - d_6_8 = -1
 order_((4,_0),_(3,_0)): x_(4,_0)_(3,_0) = 1 -> d_4_0 - d_3_0 = -1
 order_((4,_0),_(3,_10)): x_(4,_0)_(3,_10) = 1 -> d_4_0 - d_3_10 = -1
 order_((4,_0),_(9,_10)): x_(4,_0)_(9,_10) = 1 -> d_4_0 - d_9_10 = -1
 order_((4,_0),_(8,_8)): x_(4,_0)_(8,_8) = 1 -> d_4_0 - d_8_8 = -1
 order_((4,_0),_(5,_2)): x_(4,_0)_(5,_2) = 1 -> d_4_0 - d_5_2 = -1
 order_((4,_0),_(7,_9)): x_(4,_0)_(7,_9) = 1 -> d_4_0 - d_7_9 = -1
 order_((9,_10),_(7,_3)): x_(9,_10)_(7,_3) = 1 -> d_9_10 - d_7_3 = -1
 order_((9,_10),_(6,_8)): x_(9,_10)_(6,_8) = 1 -> d_9_10 - d_6_8 = -1
 order_((9,_10),_(3,_0)): x_(9,_10)_(3,_0) = 1 -> d_9_10 - d_3_0 = -1
 order_((9,_10),_(3,_10)): x_(9,_10)_(3,_10) = 1 -> d_9_10 - d_3_10 = -1
 order_((9,_10),_(4,_0)): x_(9,_10)_(4,_0) = 1 -> d_9_10 - d_4_0 = -1
 order_((9,_10),_(8,_8)): x_(9,_10)_(8,_8) = 1 -> d_9_10 - d_8_8 = -1
 order_((9,_10),_(5,_2)): x_(9,_10)_(5,_2) = 1 -> d_9_10 - d_5_2 = -1
 order_((9,_10),_(7,_9)): x_(9,_10)_(7,_9) = 1 -> d_9_10 - d_7_9 = -1
 order_((8,_8),_(7,_3)): x_(8,_8)_(7,_3) = 1 -> d_8_8 - d_7_3 = -1
 order_((8,_8),_(6,_8)): x_(8,_8)_(6,_8) = 1 -> d_8_8 - d_6_8 = -1
 order_((8,_8),_(3,_0)): x_(8,_8)_(3,_0) = 1 -> d_8_8 - d_3_0 = -1
 order_((8,_8),_(3,_10)): x_(8,_8)_(3,_10) = 1 -> d_8_8 - d_3_10 = -1
 order_((8,_8),_(4,_0)): x_(8,_8)_(4,_0) = 1 -> d_8_8 - d_4_0 = -1
 order_((8,_8),_(9,_10)): x_(8,_8)_(9,_10) = 1 -> d_8_8 - d_9_10 = -1
 order_((8,_8),_(5,_2)): x_(8,_8)_(5,_2) = 1 -> d_8_8 - d_5_2 = -1
 order_((8,_8),_(7,_9)): x_(8,_8)_(7,_9) = 1 -> d_8_8 - d_7_9 = -1
 order_((5,_2),_(7,_3)): x_(5,_2)_(7,_3) = 1 -> d_5_2 - d_7_3 = -1
 order_((5,_2),_(6,_8)): x_(5,_2)_(6,_8) = 1 -> d_5_2 - d_6_8 = -1
 order_((5,_2),_(3,_0)): x_(5,_2)_(3,_0) = 1 -> d_5_2 - d_3_0 = -1
 order_((5,_2),_(3,_10)): x_(5,_2)_(3,_10) = 1 -> d_5_2 - d_3_10 = -1
 order_((5,_2),_(4,_0)): x_(5,_2)_(4,_0) = 1 -> d_5_2 - d_4_0 = -1
 order_((5,_2),_(9,_10)): x_(5,_2)_(9,_10) = 1 -> d_5_2 - d_9_10 = -1
 order_((5,_2),_(8,_8)): x_(5,_2)_(8,_8) = 1 -> d_5_2 - d_8_8 = -1
 order_((5,_2),_(7,_9)): x_(5,_2)_(7,_9) = 1 -> d_5_2 - d_7_9 = -1
 order_((7,_9),_(7,_3)): x_(7,_9)_(7,_3) = 1 -> d_7_9 - d_7_3 = -1
 order_((7,_9),_(6,_8)): x_(7,_9)_(6,_8) = 1 -> d_7_9 - d_6_8 = -1
 order_((7,_9),_(3,_0)): x_(7,_9)_(3,_0) = 1 -> d_7_9 - d_3_0 = -1
 order_((7,_9),_(3,_10)): x_(7,_9)_(3,_10) = 1 -> d_7_9 - d_3_10 = -1
 order_((7,_9),_(4,_0)): x_(7,_9)_(4,_0) = 1 -> d_7_9 - d_4_0 = -1
 order_((7,_9),_(9,_10)): x_(7,_9)_(9,_10) = 1 -> d_7_9 - d_9_10 = -1
 order_((7,_9),_(8,_8)): x_(7,_9)_(8,_8) = 1 -> d_7_9 - d_8_8 = -1
 order_((7,_9),_(5,_2)): x_(7,_9)_(5,_2) = 1 -> d_7_9 - d_5_2 = -1
 identity_(2,_7)_(7,_3): x_(2,_7)_(7,_3) + x_(7,_3)_(2,_7) <= 1
 identity_(2,_7)_(6,_8): x_(2,_7)_(6,_8) + x_(6,_8)_(2,_7) <= 1
 identity_(2,_7)_(3,_0): x_(2,_7)_(3,_0) + x_(3,_0)_(2,_7) <= 1
 identity_(2,_7)_(3,_10): x_(2,_7)_(3,_10) + x_(3,_10)_(2,_7) <= 1
 identity_(2,_7)_(4,_0): x_(2,_7)_(4,_0) + x_(4,_0)_(2,_7) <= 1
 identity_(2,_7)_(9,_10): x_(2,_7)_(9,_10) + x_(9,_10)_(2,_7) <= 1
 identity_(2,_7)_(8,_8): x_(2,_7)_(8,_8) + x_(8,_8)_(2,_7) <= 1
 identity_(2,_7)_(5,_2): x_(2,_7)_(5,_2) + x_(5,_2)_(2,_7) <= 1
 identity_(2,_7)_(7,_9): x_(2,_7)_(7,_9) + x_(7,_9)_(2,_7) <= 1
 identity_(7,_3)_(2,_7): x_(2,_7)_(7,_3) + x_(7,_3)_(2,_7) <= 1
 identity_(7,_3)_(6,_8): x_(7,_3)_(6,_8) + x_(6,_8)_(7,_3) <= 1
 identity_(7,_3)_(3,_0): x_(7,_3)_(3,_0) + x_(3,_0)_(7,_3) <= 1
 identity_(7,_3)_(3,_10): x_(7,_3)_(3,_10) + x_(3,_10)_(7,_3) <= 1
 identity_(7,_3)_(4,_0): x_(7,_3)_(4,_0) + x_(4,_0)_(7,_3) <= 1
 identity_(7,_3)_(9,_10): x_(7,_3)_(9,_10) + x_(9,_10)_(7,_3) <= 1
 identity_(7,_3)_(8,_8): x_(7,_3)_(8,_8) + x_(8,_8)_(7,_3) <= 1
 identity_(7,_3)_(5,_2): x_(7,_3)_(5,_2) + x_(5,_2)_(7,_3) <= 1
 identity_(7,_3)_(7,_9): x_(7,_3)_(7,_9) + x_(7,_9)_(7,_3) <= 1
 identity_(6,_8)_(2,_7): x_(2,_7)_(6,_8) + x_(6,_8)_(2,_7) <= 1
 identity_(6,_8)_(7,_3): x_(7,_3)_(6,_8) + x_(6,_8)_(7,_3) <= 1
 identity_(6,_8)_(3,_0): x_(6,_8)_(3,_0) + x_(3,_0)_(6,_8) <= 1
 identity_(6,_8)_(3,_10): x_(6,_8)_(3,_10) + x_(3,_10)_(6,_8) <= 1
 identity_(6,_8)_(4,_0): x_(6,_8)_(4,_0) + x_(4,_0)_(6,_8) <= 1
 identity_(6,_8)_(9,_10): x_(6,_8)_(9,_10) + x_(9,_10)_(6,_8) <= 1
 identity_(6,_8)_(8,_8): x_(6,_8)_(8,_8) + x_(8,_8)_(6,_8) <= 1
 identity_(6,_8)_(5,_2): x_(6,_8)_(5,_2) + x_(5,_2)_(6,_8) <= 1
 identity_(6,_8)_(7,_9): x_(6,_8)_(7,_9) + x_(7,_9)_(6,_8) <= 1
 identity_(3,_0)_(2,_7): x_(2,_7)_(3,_0) + x_(3,_0)_(2,_7) <= 1
 identity_(3,_0)_(7,_3): x_(7,_3)_(3,_0) + x_(3,_0)_(7,_3) <= 1
 identity_(3,_0)_(6,_8): x_(6,_8)_(3,_0) + x_(3,_0)_(6,_8) <= 1
 identity_(3,_0)_(3,_10): x_(3,_0)_(3,_10) + x_(3,_10)_(3,_0) <= 1
 identity_(3,_0)_(4,_0): x_(3,_0)_(4,_0) + x_(4,_0)_(3,_0) <= 1
 identity_(3,_0)_(9,_10): x_(3,_0)_(9,_10) + x_(9,_10)_(3,_0) <= 1
 identity_(3,_0)_(8,_8): x_(3,_0)_(8,_8) + x_(8,_8)_(3,_0) <= 1
 identity_(3,_0)_(5,_2): x_(3,_0)_(5,_2) + x_(5,_2)_(3,_0) <= 1
 identity_(3,_0)_(7,_9): x_(3,_0)_(7,_9) + x_(7,_9)_(3,_0) <= 1
 identity_(3,_10)_(2,_7): x_(2,_7)_(3,_10) + x_(3,_10)_(2,_7) <= 1
 identity_(3,_10)_(7,_3): x_(7,_3)_(3,_10) + x_(3,_10)_(7,_3) <= 1
 identity_(3,_10)_(6,_8): x_(6,_8)_(3,_10) + x_(3,_10)_(6,_8) <= 1
 identity_(3,_10)_(3,_0): x_(3,_0)_(3,_10) + x_(3,_10)_(3,_0) <= 1
 identity_(3,_10)_(4,_0): x_(3,_10)_(4,_0) + x_(4,_0)_(3,_10) <= 1
 identity_(3,_10)_(9,_10): x_(3,_10)_(9,_10) + x_(9,_10)_(3,_10) <= 1
 identity_(3,_10)_(8,_8): x_(3,_10)_(8,_8) + x_(8,_8)_(3,_10) <= 1
 identity_(3,_10)_(5,_2): x_(3,_10)_(5,_2) + x_(5,_2)_(3,_10) <= 1
 identity_(3,_10)_(7,_9): x_(3,_10)_(7,_9) + x_(7,_9)_(3,_10) <= 1
 identity_(4,_0)_(2,_7): x_(2,_7)_(4,_0) + x_(4,_0)_(2,_7) <= 1
 identity_(4,_0)_(7,_3): x_(7,_3)_(4,_0) + x_(4,_0)_(7,_3) <= 1
 identity_(4,_0)_(6,_8): x_(6,_8)_(4,_0) + x_(4,_0)_(6,_8) <= 1
 identity_(4,_0)_(3,_0): x_(3,_0)_(4,_0) + x_(4,_0)_(3,_0) <= 1
 identity_(4,_0)_(3,_10): x_(3,_10)_(4,_0) + x_(4,_0)_(3,_10) <= 1
 identity_(4,_0)_(9,_10): x_(4,_0)_(9,_10) + x_(9,_10)_(4,_0) <= 1
 identity_(4,_0)_(8,_8): x_(4,_0)_(8,_8) + x_(8,_8)_(4,_0) <= 1
 identity_(4,_0)_(5,_2): x_(4,_0)_(5,_2) + x_(5,_2)_(4,_0) <= 1
 identity_(4,_0)_(7,_9): x_(4,_0)_(7,_9) + x_(7,_9)_(4,_0) <= 1
 identity_(9,_10)_(2,_7): x_(2,_7)_(9,_10) + x_(9,_10)_(2,_7) <= 1
 identity_(9,_10)_(7,_3): x_(7,_3)_(9,_10) + x_(9,_10)_(7,_3) <= 1
 identity_(9,_10)_(6,_8): x_(6,_8)_(9,_10) + x_(9,_10)_(6,_8) <= 1
 identity_(9,_10)_(3,_0): x_(3,_0)_(9,_10) + x_(9,_10)_(3,_0) <= 1
 identity_(9,_10)_(3,_10): x_(3,_10)_(9,_10) + x_(9,_10)_(3,_10) <= 1
 identity_(9,_10)_(4,_0): x_(4,_0)_(9,_10) + x_(9,_10)_(4,_0) <= 1
 identity_(9,_10)_(8,_8): x_(9,_10)_(8,_8) + x_(8,_8)_(9,_10) <= 1
 identity_(9,_10)_(5,_2): x_(9,_10)_(5,_2) + x_(5,_2)_(9,_10) <= 1
 identity_(9,_10)_(7,_9): x_(9,_10)_(7,_9) + x_(7,_9)_(9,_10) <= 1
 identity_(8,_8)_(2,_7): x_(2,_7)_(8,_8) + x_(8,_8)_(2,_7) <= 1
 identity_(8,_8)_(7,_3): x_(7,_3)_(8,_8) + x_(8,_8)_(7,_3) <= 1
 identity_(8,_8)_(6,_8): x_(6,_8)_(8,_8) + x_(8,_8)_(6,_8) <= 1
 identity_(8,_8)_(3,_0): x_(3,_0)_(8,_8) + x_(8,_8)_(3,_0) <= 1
 identity_(8,_8)_(3,_10): x_(3,_10)_(8,_8) + x_(8,_8)_(3,_10) <= 1
 identity_(8,_8)_(4,_0): x_(4,_0)_(8,_8) + x_(8,_8)_(4,_0) <= 1
 identity_(8,_8)_(9,_10): x_(9,_10)_(8,_8) + x_(8,_8)_(9,_10) <= 1
 identity_(8,_8)_(5,_2): x_(8,_8)_(5,_2) + x_(5,_2)_(8,_8) <= 1
 identity_(8,_8)_(7,_9): x_(8,_8)_(7,_9) + x_(7,_9)_(8,_8) <= 1
 identity_(5,_2)_(2,_7): x_(2,_7)_(5,_2) + x_(5,_2)_(2,_7) <= 1
 identity_(5,_2)_(7,_3): x_(7,_3)_(5,_2) + x_(5,_2)_(7,_3) <= 1
 identity_(5,_2)_(6,_8): x_(6,_8)_(5,_2) + x_(5,_2)_(6,_8) <= 1
 identity_(5,_2)_(3,_0): x_(3,_0)_(5,_2) + x_(5,_2)_(3,_0) <= 1
 identity_(5,_2)_(3,_10): x_(3,_10)_(5,_2) + x_(5,_2)_(3,_10) <= 1
 identity_(5,_2)_(4,_0): x_(4,_0)_(5,_2) + x_(5,_2)_(4,_0) <= 1
 identity_(5,_2)_(9,_10): x_(9,_10)_(5,_2) + x_(5,_2)_(9,_10) <= 1
 identity_(5,_2)_(8,_8): x_(8,_8)_(5,_2) + x_(5,_2)_(8,_8) <= 1
 identity_(5,_2)_(7,_9): x_(5,_2)_(7,_9) + x_(7,_9)_(5,_2) <= 1
 identity_(7,_9)_(2,_7): x_(2,_7)_(7,_9) + x_(7,_9)_(2,_7) <= 1
 identity_(7,_9)_(7,_3): x_(7,_3)_(7,_9) + x_(7,_9)_(7,_3) <= 1
 identity_(7,_9)_(6,_8): x_(6,_8)_(7,_9) + x_(7,_9)_(6,_8) <= 1
 identity_(7,_9)_(3,_0): x_(3,_0)_(7,_9) + x_(7,_9)_(3,_0) <= 1
 identity_(7,_9)_(3,_10): x_(3,_10)_(7,_9) + x_(7,_9)_(3,_10) <= 1
 identity_(7,_9)_(4,_0): x_(4,_0)_(7,_9) + x_(7,_9)_(4,_0) <= 1
 identity_(7,_9)_(9,_10): x_(9,_10)_(7,_9) + x_(7,_9)_(9,_10) <= 1
 identity_(7,_9)_(8,_8): x_(8,_8)_(7,_9) + x_(7,_9)_(8,_8) <= 1
 identity_(7,_9)_(5,_2): x_(5,_2)_(7,_9) + x_(7,_9)_(5,_2) <= 1

Bounds
0 <= x_(2,_7)_(7,_3) <= 1
0 <= x_(2,_7)_(6,_8) <= 1
0 <= x_(2,_7)_(3,_0) <= 1
0 <= x_(2,_7)_(3,_10) <= 1
0 <= x_(2,_7)_(4,_0) <= 1
0 <= x_(2,_7)_(9,_10) <= 1
0 <= x_(2,_7)_(8,_8) <= 1
0 <= x_(2,_7)_(5,_2) <= 1
0 <= x_(2,_7)_(7,_9) <= 1
0 <= x_(7,_3)_(2,_7) <= 1
0 <= x_(7,_3)_(6,_8) <= 1
0 <= x_(7,_3)_(3,_0) <= 1
0 <= x_(7,_3)_(3,_10) <= 1
0 <= x_(7,_3)_(4,_0) <= 1
0 <= x_(7,_3)_(9,_10) <= 1
0 <= x_(7,_3)_(8,_8) <= 1
0 <= x_(7,_3)_(5,_2) <= 1
0 <= x_(7,_3)_(7,_9) <= 1
0 <= x_(6,_8)_(2,_7) <= 1
0 <= x_(6,_8)_(7,_3) <= 1
0 <= x_(6,_8)_(3,_0) <= 1
0 <= x_(6,_8)_(3,_10) <= 1
0 <= x_(6,_8)_(4,_0) <= 1
0 <= x_(6,_8)_(9,_10) <= 1
0 <= x_(6,_8)_(8,_8) <= 1
0 <= x_(6,_8)_(5,_2) <= 1
0 <= x_(6,_8)_(7,_9) <= 1
0 <= x_(3,_0)_(2,_7) <= 1
0 <= x_(3,_0)_(7,_3) <= 1
0 <= x_(3,_0)_(6,_8) <= 1
0 <= x_(3,_0)_(3,_10) <= 1
0 <= x_(3,_0)_(4,_0) <= 1
0 <= x_(3,_0)_(9,_10) <= 1
0 <= x_(3,_0)_(8,_8) <= 1
0 <= x_(3,_0)_(5,_2) <= 1
0 <= x_(3,_0)_(7,_9) <= 1
0 <= x_(3,_10)_(2,_7) <= 1
0 <= x_(3,_10)_(7,_3) <= 1
0 <= x_(3,_10)_(6,_8) <= 1
0 <= x_(3,_10)_(3,_0) <= 1
0 <= x_(3,_10)_(4,_0) <= 1
0 <= x_(3,_10)_(9,_10) <= 1
0 <= x_(3,_10)_(8,_8) <= 1
0 <= x_(3,_10)_(5,_2) <= 1
0 <= x_(3,_10)_(7,_9) <= 1
0 <= x_(4,_0)_(2,_7) <= 1
0 <= x_(4,_0)_(7,_3) <= 1
0 <= x_(4,_0)_(6,_8) <= 1
0 <= x_(4,_0)_(3,_0) <= 1
0 <= x_(4,_0)_(3,_10) <= 1
0 <= x_(4,_0)_(9,_10) <= 1
0 <= x_(4,_0)_(8,_8) <= 1
0 <= x_(4,_0)_(5,_2) <= 1
0 <= x_(4,_0)_(7,_9) <= 1
0 <= x_(9,_10)_(2,_7) <= 1
0 <= x_(9,_10)_(7,_3) <= 1
0 <= x_(9,_10)_(6,_8) <= 1
0 <= x_(9,_10)_(3,_0) <= 1
0 <= x_(9,_10)_(3,_10) <= 1
0 <= x_(9,_10)_(4,_0) <= 1
0 <= x_(9,_10)_(8,_8) <= 1
0 <= x_(9,_10)_(5,_2) <= 1
0 <= x_(9,_10)_(7,_9) <= 1
0 <= x_(8,_8)_(2,_7) <= 1
0 <= x_(8,_8)_(7,_3) <= 1
0 <= x_(8,_8)_(6,_8) <= 1
0 <= x_(8,_8)_(3,_0) <= 1
0 <= x_(8,_8)_(3,_10) <= 1
0 <= x_(8,_8)_(4,_0) <= 1
0 <= x_(8,_8)_(9,_10) <= 1
0 <= x_(8,_8)_(5,_2) <= 1
0 <= x_(8,_8)_(7,_9) <= 1
0 <= x_(5,_2)_(2,_7) <= 1
0 <= x_(5,_2)_(7,_3) <= 1
0 <= x_(5,_2)_(6,_8) <= 1
0 <= x_(5,_2)_(3,_0) <= 1
0 <= x_(5,_2)_(3,_10) <= 1
0 <= x_(5,_2)_(4,_0) <= 1
0 <= x_(5,_2)_(9,_10) <= 1
0 <= x_(5,_2)_(8,_8) <= 1
0 <= x_(5,_2)_(7,_9) <= 1
0 <= x_(7,_9)_(2,_7) <= 1
0 <= x_(7,_9)_(7,_3) <= 1
0 <= x_(7,_9)_(6,_8) <= 1
0 <= x_(7,_9)_(3,_0) <= 1
0 <= x_(7,_9)_(3,_10) <= 1
0 <= x_(7,_9)_(4,_0) <= 1
0 <= x_(7,_9)_(9,_10) <= 1
0 <= x_(7,_9)_(8,_8) <= 1
0 <= x_(7,_9)_(5,_2) <= 1

Binaries
 x_(2,_7)_(7,_3) x_(2,_7)_(6,_8) x_(2,_7)_(3,_0) x_(2,_7)_(3,_10)
 x_(2,_7)_(4,_0) x_(2,_7)_(9,_10) x_(2,_7)_(8,_8) x_(2,_7)_(5,_2)
 x_(2,_7)_(7,_9) x_(7,_3)_(2,_7) x_(7,_3)_(6,_8) x_(7,_3)_(3,_0)
 x_(7,_3)_(3,_10) x_(7,_3)_(4,_0) x_(7,_3)_(9,_10) x_(7,_3)_(8,_8)
 x_(7,_3)_(5,_2) x_(7,_3)_(7,_9) x_(6,_8)_(2,_7) x_(6,_8)_(7,_3) x_(6,_8)_(3,_0)
 x_(6,_8)_(3,_10) x_(6,_8)_(4,_0) x_(6,_8)_(9,_10) x_(6,_8)_(8,_8)
 x_(6,_8)_(5,_2) x_(6,_8)_(7,_9) x_(3,_0)_(2,_7) x_(3,_0)_(7,_3) x_(3,_0)_(6,_8)
 x_(3,_0)_(3,_10) x_(3,_0)_(4,_0) x_(3,_0)_(9,_10) x_(3,_0)_(8,_8)
 x_(3,_0)_(5,_2) x_(3,_0)_(7,_9) x_(3,_10)_(2,_7) x_(3,_10)_(7,_3)
 x_(3,_10)_(6,_8) x_(3,_10)_(3,_0) x_(3,_10)_(4,_0) x_(3,_10)_(9,_10)
 x_(3,_10)_(8,_8) x_(3,_10)_(5,_2) x_(3,_10)_(7,_9) x_(4,_0)_(2,_7)
 x_(4,_0)_(7,_3) x_(4,_0)_(6,_8) x_(4,_0)_(3,_0) x_(4,_0)_(3,_10)
 x_(4,_0)_(9,_10) x_(4,_0)_(8,_8) x_(4,_0)_(5,_2) x_(4,_0)_(7,_9)
 x_(9,_10)_(2,_7) x_(9,_10)_(7,_3) x_(9,_10)_(6,_8) x_(9,_10)_(3,_0)
 x_(9,_10)_(3,_10) x_(9,_10)_(4,_0) x_(9,_10)_(8,_8) x_(9,_10)_(5,_2)
 x_(9,_10)_(7,_9) x_(8,_8)_(2,_7) x_(8,_8)_(7,_3) x_(8,_8)_(6,_8)
 x_(8,_8)_(3,_0) x_(8,_8)_(3,_10) x_(8,_8)_(4,_0) x_(8,_8)_(9,_10)
 x_(8,_8)_(5,_2) x_(8,_8)_(7,_9) x_(5,_2)_(2,_7) x_(5,_2)_(7,_3) x_(5,_2)_(6,_8)
 x_(5,_2)_(3,_0) x_(5,_2)_(3,_10) x_(5,_2)_(4,_0) x_(5,_2)_(9,_10)
 x_(5,_2)_(8,_8) x_(5,_2)_(7,_9) x_(7,_9)_(2,_7) x_(7,_9)_(7,_3) x_(7,_9)_(6,_8)
 x_(7,_9)_(3,_0) x_(7,_9)_(3,_10) x_(7,_9)_(4,_0) x_(7,_9)_(9,_10)
 x_(7,_9)_(8,_8) x_(7,_9)_(5,_2)
End
